NAME : S-G-150-5.1894.tour
COMMENT : Length = 1894
COMMENT : Found by LKH [Keld Helsgaun] Thu May 17 23:18:20 2018
TYPE : TOUR
DIMENSION : 31
TOUR_SECTION
1
21
27
28
24
22
11
3
2
10
5
17
25
18
20
31
26
23
9
8
13
4
14
29
15
7
16
6
12
30
19
-1
EOF
